p cnf 963 2473
51 -2 -1 0
-51 2 0
-51 1 0
52 -51 -3 0
-52 51 0
-52 3 0
53 -697 -4 0
-53 697 0
-53 4 0
54 -53 -6 0
-54 53 0
-54 6 0
55 -698 -699 0
-55 698 0
-55 699 0
56 -8 -700 0
-56 8 0
-56 700 0
57 -56 -9 0
-57 56 0
-57 9 0
58 -701 -55 0
-58 701 0
-58 55 0
59 -702 -703 0
-59 702 0
-59 703 0
60 -59 -704 0
-60 59 0
-60 704 0
61 -705 -58 0
-61 705 0
-61 58 0
62 -706 -707 0
-62 706 0
-62 707 0
63 -62 -708 0
-63 62 0
-63 708 0
64 -709 -61 0
-64 709 0
-64 61 0
65 -710 -711 0
-65 710 0
-65 711 0
66 -65 -712 0
-66 65 0
-66 712 0
67 -713 -64 0
-67 713 0
-67 64 0
68 -19 -704 0
-68 19 0
-68 704 0
69 -68 -714 0
-69 68 0
-69 714 0
70 -715 -67 0
-70 715 0
-70 67 0
71 -17 -702 0
-71 17 0
-71 702 0
72 -71 -20 0
-72 71 0
-72 20 0
73 -716 -70 0
-73 716 0
-73 70 0
74 -717 -21 0
-74 717 0
-74 21 0
75 -74 -15 0
-75 74 0
-75 15 0
76 -718 -73 0
-76 718 0
-76 73 0
77 -23 -10 0
-77 23 0
-77 10 0
78 -77 -712 0
-78 77 0
-78 712 0
79 -719 -76 0
-79 719 0
-79 76 0
80 -703 -4 0
-80 703 0
-80 4 0
81 -80 -23 0
-81 80 0
-81 23 0
82 -720 -79 0
-82 720 0
-82 79 0
83 -25 -24 0
-83 25 0
-83 24 0
84 -83 -721 0
-84 83 0
-84 721 0
85 -722 -82 0
-85 722 0
-85 82 0
86 -28 -27 0
-86 28 0
-86 27 0
87 -86 -15 0
-87 86 0
-87 15 0
88 -723 -85 0
-88 723 0
-88 85 0
89 -724 -1 0
-89 724 0
-89 1 0
90 -89 -725 0
-90 89 0
-90 725 0
91 -726 -88 0
-91 726 0
-91 88 0
92 -22 -700 0
-92 22 0
-92 700 0
93 -92 -31 0
-93 92 0
-93 31 0
94 -727 -91 0
-94 727 0
-94 91 0
95 -728 -711 0
-95 728 0
-95 711 0
96 -95 -729 0
-96 95 0
-96 729 0
97 -730 -94 0
-97 730 0
-97 94 0
98 -706 -4 0
-98 706 0
-98 4 0
99 -98 -31 0
-99 98 0
-99 31 0
100 -731 -97 0
-100 731 0
-100 97 0
101 -732 -7 0
-101 732 0
-101 7 0
102 -101 -733 0
-102 101 0
-102 733 0
103 -734 -100 0
-103 734 0
-103 100 0
104 -35 -6 0
-104 35 0
-104 6 0
105 -104 -735 0
-105 104 0
-105 735 0
106 -736 -103 0
-106 736 0
-106 103 0
107 -36 -711 0
-107 36 0
-107 711 0
108 -107 -17 0
-108 107 0
-108 17 0
109 -737 -106 0
-109 737 0
-109 106 0
110 -27 -11 0
-110 27 0
-110 11 0
111 -110 -3 0
-111 110 0
-111 3 0
112 -738 -109 0
-112 738 0
-112 109 0
113 -29 -4 0
-113 29 0
-113 4 0
114 -113 -9 0
-114 113 0
-114 9 0
115 -739 -112 0
-115 739 0
-115 112 0
116 -740 -2 0
-116 740 0
-116 2 0
117 -116 -735 0
-117 116 0
-117 735 0
118 -741 -115 0
-118 741 0
-118 115 0
119 -28 -7 0
-119 28 0
-119 7 0
120 -119 -18 0
-120 119 0
-120 18 0
121 -742 -118 0
-121 742 0
-121 118 0
122 -743 -744 0
-122 743 0
-122 744 0
123 -122 -745 0
-123 122 0
-123 745 0
124 -746 -121 0
-124 746 0
-124 121 0
125 -747 -700 0
-125 747 0
-125 700 0
126 -125 -711 0
-126 125 0
-126 711 0
127 -748 -124 0
-127 748 0
-127 124 0
128 -732 -711 0
-128 732 0
-128 711 0
129 -128 -712 0
-129 128 0
-129 712 0
130 -749 -127 0
-130 749 0
-130 127 0
131 -40 -743 0
-131 40 0
-131 743 0
132 -131 -30 0
-132 131 0
-132 30 0
133 -750 -130 0
-133 750 0
-133 130 0
134 -35 -24 0
-134 35 0
-134 24 0
135 -134 -751 0
-135 134 0
-135 751 0
136 -752 -133 0
-136 752 0
-136 133 0
137 -36 -14 0
-137 36 0
-137 14 0
138 -137 -725 0
-138 137 0
-138 725 0
139 -753 -136 0
-139 753 0
-139 136 0
140 -40 -702 0
-140 40 0
-140 702 0
141 -140 -712 0
-141 140 0
-141 712 0
142 -754 -139 0
-142 754 0
-142 139 0
143 -25 -703 0
-143 25 0
-143 703 0
144 -143 -755 0
-144 143 0
-144 755 0
145 -756 -142 0
-145 756 0
-145 142 0
146 -43 -29 0
-146 43 0
-146 29 0
147 -146 -36 0
-147 146 0
-147 36 0
148 -757 -145 0
-148 757 0
-148 145 0
149 -24 -4 0
-149 24 0
-149 4 0
150 -149 -12 0
-150 149 0
-150 12 0
151 -758 -148 0
-151 758 0
-151 148 0
152 -5 -759 0
-152 5 0
-152 759 0
153 -152 -16 0
-153 152 0
-153 16 0
154 -760 -151 0
-154 760 0
-154 151 0
155 -747 -761 0
-155 747 0
-155 761 0
156 -155 -721 0
-156 155 0
-156 721 0
157 -762 -154 0
-157 762 0
-157 154 0
158 -763 -22 0
-158 763 0
-158 22 0
159 -158 -44 0
-159 158 0
-159 44 0
160 -764 -157 0
-160 764 0
-160 157 0
161 -22 -10 0
-161 22 0
-161 10 0
162 -161 -45 0
-162 161 0
-162 45 0
163 -765 -160 0
-163 765 0
-163 160 0
164 -16 -707 0
-164 16 0
-164 707 0
165 -164 -15 0
-165 164 0
-165 15 0
166 -766 -163 0
-166 766 0
-166 163 0
167 -10 -697 0
-167 10 0
-167 697 0
168 -167 -22 0
-168 167 0
-168 22 0
169 -767 -166 0
-169 767 0
-169 166 0
170 -46 -5 0
-170 46 0
-170 5 0
171 -170 -768 0
-171 170 0
-171 768 0
172 -769 -169 0
-172 769 0
-172 169 0
173 -21 -1 0
-173 21 0
-173 1 0
174 -173 -14 0
-174 173 0
-174 14 0
175 -770 -172 0
-175 770 0
-175 172 0
176 -733 -706 0
-176 733 0
-176 706 0
177 -176 -768 0
-177 176 0
-177 768 0
178 -771 -175 0
-178 771 0
-178 175 0
179 -772 -761 0
-179 772 0
-179 761 0
180 -179 -732 0
-180 179 0
-180 732 0
181 -773 -178 0
-181 773 0
-181 178 0
182 -36 -3 0
-182 36 0
-182 3 0
183 -182 -23 0
-183 182 0
-183 23 0
184 -774 -181 0
-184 774 0
-184 181 0
185 -41 -34 0
-185 41 0
-185 34 0
186 -185 -735 0
-186 185 0
-186 735 0
187 -775 -184 0
-187 775 0
-187 184 0
188 -39 -24 0
-188 39 0
-188 24 0
189 -188 -706 0
-189 188 0
-189 706 0
190 -776 -187 0
-190 776 0
-190 187 0
191 -747 -25 0
-191 747 0
-191 25 0
192 -191 -721 0
-192 191 0
-192 721 0
193 -777 -190 0
-193 777 0
-193 190 0
194 -48 -732 0
-194 48 0
-194 732 0
195 -194 -45 0
-195 194 0
-195 45 0
196 -778 -193 0
-196 778 0
-196 193 0
197 -779 -29 0
-197 779 0
-197 29 0
198 -197 -751 0
-198 197 0
-198 751 0
199 -780 -196 0
-199 780 0
-199 196 0
200 -47 -43 0
-200 47 0
-200 43 0
201 -200 -20 0
-201 200 0
-201 20 0
202 -781 -199 0
-202 781 0
-202 199 0
203 -49 -39 0
-203 49 0
-203 39 0
204 -203 -711 0
-204 203 0
-204 711 0
205 -782 -202 0
-205 782 0
-205 202 0
206 -783 -6 0
-206 783 0
-206 6 0
207 -206 -33 0
-207 206 0
-207 33 0
208 -784 -205 0
-208 784 0
-208 205 0
209 -43 -39 0
-209 43 0
-209 39 0
210 -209 -785 0
-210 209 0
-210 785 0
211 -786 -208 0
-211 786 0
-211 208 0
212 -724 -787 0
-212 724 0
-212 787 0
213 -212 -712 0
-213 212 0
-213 712 0
214 -788 -211 0
-214 788 0
-214 211 0
215 -27 -697 0
-215 27 0
-215 697 0
216 -215 -785 0
-216 215 0
-216 785 0
217 -789 -214 0
-217 789 0
-217 214 0
218 -39 -790 0
-218 39 0
-218 790 0
219 -218 -15 0
-219 218 0
-219 15 0
220 -791 -217 0
-220 791 0
-220 217 0
221 -717 -792 0
-221 717 0
-221 792 0
222 -221 -793 0
-222 221 0
-222 793 0
223 -794 -220 0
-223 794 0
-223 220 0
224 -795 -785 0
-224 795 0
-224 785 0
225 -224 -12 0
-225 224 0
-225 12 0
226 -796 -223 0
-226 796 0
-226 223 0
227 -44 -22 0
-227 44 0
-227 22 0
228 -227 -28 0
-228 227 0
-228 28 0
229 -797 -226 0
-229 797 0
-229 226 0
230 -772 -8 0
-230 772 0
-230 8 0
231 -230 -32 0
-231 230 0
-231 32 0
232 -798 -229 0
-232 798 0
-232 229 0
233 -32 -28 0
-233 32 0
-233 28 0
234 -233 -708 0
-234 233 0
-234 708 0
235 -799 -232 0
-235 799 0
-235 232 0
236 -800 -702 0
-236 800 0
-236 702 0
237 -236 -712 0
-237 236 0
-237 712 0
238 -801 -235 0
-238 801 0
-238 235 0
239 -802 -22 0
-239 802 0
-239 22 0
240 -239 -32 0
-240 239 0
-240 32 0
241 -803 -238 0
-241 803 0
-241 238 0
242 -729 -759 0
-242 729 0
-242 759 0
243 -242 -19 0
-243 242 0
-243 19 0
244 -804 -241 0
-244 804 0
-244 241 0
245 -805 -30 0
-245 805 0
-245 30 0
246 -245 -20 0
-246 245 0
-246 20 0
247 -806 -244 0
-247 806 0
-247 244 0
248 -795 -23 0
-248 795 0
-248 23 0
249 -248 -802 0
-249 248 0
-249 802 0
250 -807 -247 0
-250 807 0
-250 247 0
251 -747 -23 0
-251 747 0
-251 23 0
252 -251 -8 0
-252 251 0
-252 8 0
253 -808 -250 0
-253 808 0
-253 250 0
254 -744 -10 0
-254 744 0
-254 10 0
255 -254 -721 0
-255 254 0
-255 721 0
256 -809 -253 0
-256 809 0
-256 253 0
257 -21 -13 0
-257 21 0
-257 13 0
258 -257 -12 0
-258 257 0
-258 12 0
259 -810 -256 0
-259 810 0
-259 256 0
260 -13 -792 0
-260 13 0
-260 792 0
261 -260 -768 0
-261 260 0
-261 768 0
262 -811 -259 0
-262 811 0
-262 259 0
263 -257 -712 0
-263 257 0
-263 712 0
264 -812 -262 0
-264 812 0
-264 262 0
265 -779 -1 0
-265 779 0
-265 1 0
266 -265 -17 0
-266 265 0
-266 17 0
267 -813 -264 0
-267 813 0
-267 264 0
268 -733 -710 0
-268 733 0
-268 710 0
269 -268 -802 0
-269 268 0
-269 802 0
270 -814 -267 0
-270 814 0
-270 267 0
271 -11 -700 0
-271 11 0
-271 700 0
272 -271 -23 0
-272 271 0
-272 23 0
273 -815 -270 0
-273 815 0
-273 270 0
274 -732 -24 0
-274 732 0
-274 24 0
275 -274 -768 0
-275 274 0
-275 768 0
276 -816 -273 0
-276 816 0
-276 273 0
277 -763 -703 0
-277 763 0
-277 703 0
278 -277 -31 0
-278 277 0
-278 31 0
279 -817 -276 0
-279 817 0
-279 276 0
280 -805 -2 0
-280 805 0
-280 2 0
281 -280 -721 0
-281 280 0
-281 721 0
282 -818 -279 0
-282 818 0
-282 279 0
283 -37 -28 0
-283 37 0
-283 28 0
284 -283 -802 0
-284 283 0
-284 802 0
285 -819 -282 0
-285 819 0
-285 282 0
286 -785 -703 0
-286 785 0
-286 703 0
287 -286 -725 0
-287 286 0
-287 725 0
288 -820 -285 0
-288 820 0
-288 285 0
289 -724 -793 0
-289 724 0
-289 793 0
290 -289 -28 0
-290 289 0
-290 28 0
291 -821 -288 0
-291 821 0
-291 288 0
292 -706 -697 0
-292 706 0
-292 697 0
293 -292 -31 0
-293 292 0
-293 31 0
294 -822 -291 0
-294 822 0
-294 291 0
295 -47 -744 0
-295 47 0
-295 744 0
296 -295 -19 0
-296 295 0
-296 19 0
297 -823 -294 0
-297 823 0
-297 294 0
298 -43 -732 0
-298 43 0
-298 732 0
299 -298 -30 0
-299 298 0
-299 30 0
300 -824 -297 0
-300 824 0
-300 297 0
301 -787 -2 0
-301 787 0
-301 2 0
302 -301 -20 0
-302 301 0
-302 20 0
303 -825 -300 0
-303 825 0
-303 300 0
304 -707 -2 0
-304 707 0
-304 2 0
305 -304 -19 0
-305 304 0
-305 19 0
306 -826 -303 0
-306 826 0
-306 303 0
307 -25 -23 0
-307 25 0
-307 23 0
308 -307 -711 0
-308 307 0
-308 711 0
309 -827 -306 0
-309 827 0
-309 306 0
310 -787 -3 0
-310 787 0
-310 3 0
311 -310 -26 0
-311 310 0
-311 26 0
312 -828 -309 0
-312 828 0
-312 309 0
313 -37 -8 0
-313 37 0
-313 8 0
314 -313 -829 0
-314 313 0
-314 829 0
315 -830 -312 0
-315 830 0
-315 312 0
316 -45 -744 0
-316 45 0
-316 744 0
317 -316 -714 0
-317 316 0
-317 714 0
318 -831 -315 0
-318 831 0
-318 315 0
319 -724 -22 0
-319 724 0
-319 22 0
320 -319 -704 0
-320 319 0
-320 704 0
321 -832 -318 0
-321 832 0
-321 318 0
322 -795 -13 0
-322 795 0
-322 13 0
323 -322 -712 0
-323 322 0
-323 712 0
324 -833 -321 0
-324 833 0
-324 321 0
325 -743 -704 0
-325 743 0
-325 704 0
326 -325 -751 0
-326 325 0
-326 751 0
327 -834 -324 0
-327 834 0
-327 324 0
328 -800 -772 0
-328 800 0
-328 772 0
329 -328 -755 0
-329 328 0
-329 755 0
330 -835 -327 0
-330 835 0
-330 327 0
331 -728 -17 0
-331 728 0
-331 17 0
332 -331 -712 0
-332 331 0
-332 712 0
333 -836 -330 0
-333 836 0
-333 330 0
334 -743 -717 0
-334 743 0
-334 717 0
335 -334 -50 0
-335 334 0
-335 50 0
336 -837 -333 0
-336 837 0
-336 333 0
337 -155 -779 0
-337 155 0
-337 779 0
338 -838 -336 0
-338 838 0
-338 336 0
339 -772 -702 0
-339 772 0
-339 702 0
340 -339 -714 0
-340 339 0
-340 714 0
341 -839 -338 0
-341 839 0
-341 338 0
342 -7 -3 0
-342 7 0
-342 3 0
343 -342 -14 0
-343 342 0
-343 14 0
344 -840 -341 0
-344 840 0
-344 341 0
345 -724 -717 0
-345 724 0
-345 717 0
346 -345 -23 0
-346 345 0
-346 23 0
347 -841 -344 0
-347 841 0
-347 344 0
348 -800 -711 0
-348 800 0
-348 711 0
349 -348 -48 0
-349 348 0
-349 48 0
350 -842 -347 0
-350 842 0
-350 347 0
351 -27 -708 0
-351 27 0
-351 708 0
352 -351 -755 0
-352 351 0
-352 755 0
353 -843 -350 0
-353 843 0
-353 350 0
354 -46 -733 0
-354 46 0
-354 733 0
355 -354 -844 0
-355 354 0
-355 844 0
356 -845 -353 0
-356 845 0
-356 353 0
357 -783 -46 0
-357 783 0
-357 46 0
358 -357 -710 0
-358 357 0
-358 710 0
359 -846 -356 0
-359 846 0
-359 356 0
360 -740 -6 0
-360 740 0
-360 6 0
361 -360 -847 0
-361 360 0
-361 847 0
362 -848 -359 0
-362 848 0
-362 359 0
363 -40 -7 0
-363 40 0
-363 7 0
364 -363 -22 0
-364 363 0
-364 22 0
365 -849 -362 0
-365 849 0
-365 362 0
366 -18 -3 0
-366 18 0
-366 3 0
367 -366 -19 0
-367 366 0
-367 19 0
368 -850 -365 0
-368 850 0
-368 365 0
369 -43 -11 0
-369 43 0
-369 11 0
370 -369 -761 0
-370 369 0
-370 761 0
371 -851 -368 0
-371 851 0
-371 368 0
372 -747 -1 0
-372 747 0
-372 1 0
373 -372 -763 0
-373 372 0
-373 763 0
374 -852 -371 0
-374 852 0
-374 371 0
375 -46 -707 0
-375 46 0
-375 707 0
376 -375 -26 0
-376 375 0
-376 26 0
377 -853 -374 0
-377 853 0
-377 374 0
378 -42 -12 0
-378 42 0
-378 12 0
379 -378 -9 0
-379 378 0
-379 9 0
380 -854 -377 0
-380 854 0
-380 377 0
381 -23 -17 0
-381 23 0
-381 17 0
382 -381 -42 0
-382 381 0
-382 42 0
383 -855 -380 0
-383 855 0
-383 380 0
384 -6 -4 0
-384 6 0
-384 4 0
385 -384 -704 0
-385 384 0
-385 704 0
386 -856 -383 0
-386 856 0
-386 383 0
387 -30 -3 0
-387 30 0
-387 3 0
388 -387 -12 0
-388 387 0
-388 12 0
389 -857 -386 0
-389 857 0
-389 386 0
390 -30 -711 0
-390 30 0
-390 711 0
391 -390 -755 0
-391 390 0
-391 755 0
392 -858 -389 0
-392 858 0
-392 389 0
393 -40 -740 0
-393 40 0
-393 740 0
394 -393 -45 0
-394 393 0
-394 45 0
395 -859 -392 0
-395 859 0
-395 392 0
396 -751 -24 0
-396 751 0
-396 24 0
397 -396 -729 0
-397 396 0
-397 729 0
398 -860 -395 0
-398 860 0
-398 395 0
399 -744 -7 0
-399 744 0
-399 7 0
400 -399 -20 0
-400 399 0
-400 20 0
401 -861 -398 0
-401 861 0
-401 398 0
402 -40 -759 0
-402 40 0
-402 759 0
403 -402 -33 0
-403 402 0
-403 33 0
404 -862 -401 0
-404 862 0
-404 401 0
405 -13 -697 0
-405 13 0
-405 697 0
406 -405 -744 0
-406 405 0
-406 744 0
407 -863 -404 0
-407 863 0
-407 404 0
408 -43 -27 0
-408 43 0
-408 27 0
409 -408 -740 0
-409 408 0
-409 740 0
410 -864 -407 0
-410 864 0
-410 407 0
411 -22 -11 0
-411 22 0
-411 11 0
412 -411 -41 0
-412 411 0
-412 41 0
413 -865 -410 0
-413 865 0
-413 410 0
414 -44 -4 0
-414 44 0
-414 4 0
415 -414 -17 0
-415 414 0
-415 17 0
416 -866 -413 0
-416 866 0
-416 413 0
417 -867 -704 0
-417 867 0
-417 704 0
418 -417 -19 0
-418 417 0
-418 19 0
419 -868 -416 0
-419 868 0
-419 416 0
420 -867 -785 0
-420 867 0
-420 785 0
421 -420 -844 0
-421 420 0
-421 844 0
422 -869 -419 0
-422 869 0
-422 419 0
423 -29 -717 0
-423 29 0
-423 717 0
424 -423 -31 0
-424 423 0
-424 31 0
425 -870 -422 0
-425 870 0
-425 422 0
426 -779 -740 0
-426 779 0
-426 740 0
427 -426 -805 0
-427 426 0
-427 805 0
428 -871 -425 0
-428 871 0
-428 425 0
429 -783 -732 0
-429 783 0
-429 732 0
430 -429 -42 0
-430 429 0
-430 42 0
431 -872 -428 0
-431 872 0
-431 428 0
432 -39 -735 0
-432 39 0
-432 735 0
433 -432 -755 0
-433 432 0
-433 755 0
434 -873 -431 0
-434 873 0
-434 431 0
435 -8 -2 0
-435 8 0
-435 2 0
436 -435 -745 0
-436 435 0
-436 745 0
437 -874 -434 0
-437 874 0
-437 434 0
438 -724 -10 0
-438 724 0
-438 10 0
439 -438 -2 0
-439 438 0
-439 2 0
440 -875 -437 0
-440 875 0
-440 437 0
441 -847 -785 0
-441 847 0
-441 785 0
442 -441 -26 0
-442 441 0
-442 26 0
443 -876 -440 0
-443 876 0
-443 440 0
444 -30 -724 0
-444 30 0
-444 724 0
445 -444 -47 0
-445 444 0
-445 47 0
446 -877 -443 0
-446 877 0
-446 443 0
447 -432 -708 0
-447 432 0
-447 708 0
448 -878 -446 0
-448 878 0
-448 446 0
449 -743 -785 0
-449 743 0
-449 785 0
450 -449 -795 0
-450 449 0
-450 795 0
451 -879 -448 0
-451 879 0
-451 448 0
452 -131 -50 0
-452 131 0
-452 50 0
453 -880 -451 0
-453 880 0
-453 451 0
454 -867 -36 0
-454 867 0
-454 36 0
455 -454 -19 0
-455 454 0
-455 19 0
456 -881 -453 0
-456 881 0
-456 453 0
457 -711 -759 0
-457 711 0
-457 759 0
458 -457 -735 0
-458 457 0
-458 735 0
459 -882 -456 0
-459 882 0
-459 456 0
460 -43 -747 0
-460 43 0
-460 747 0
461 -460 -785 0
-461 460 0
-461 785 0
462 -883 -459 0
-462 883 0
-462 459 0
463 -45 -772 0
-463 45 0
-463 772 0
464 -463 -745 0
-464 463 0
-464 745 0
465 -884 -462 0
-465 884 0
-465 462 0
466 -729 -728 0
-466 729 0
-466 728 0
467 -466 -755 0
-467 466 0
-467 755 0
468 -885 -465 0
-468 885 0
-468 465 0
469 -717 -712 0
-469 717 0
-469 712 0
470 -469 -42 0
-470 469 0
-470 42 0
471 -886 -468 0
-471 886 0
-471 468 0
472 -34 -761 0
-472 34 0
-472 761 0
473 -472 -768 0
-473 472 0
-473 768 0
474 -887 -471 0
-474 887 0
-474 471 0
475 -28 -21 0
-475 28 0
-475 21 0
476 -475 -755 0
-476 475 0
-476 755 0
477 -888 -474 0
-477 888 0
-477 474 0
478 -50 -49 0
-478 50 0
-478 49 0
479 -478 -729 0
-479 478 0
-479 729 0
480 -889 -477 0
-480 889 0
-480 477 0
481 -37 -15 0
-481 37 0
-481 15 0
482 -481 -755 0
-482 481 0
-482 755 0
483 -890 -480 0
-483 890 0
-483 480 0
484 -143 -7 0
-484 143 0
-484 7 0
485 -891 -483 0
-485 891 0
-485 483 0
486 -43 -724 0
-486 43 0
-486 724 0
487 -486 -712 0
-487 486 0
-487 712 0
488 -892 -485 0
-488 892 0
-488 485 0
489 -48 -5 0
-489 48 0
-489 5 0
490 -489 -735 0
-490 489 0
-490 735 0
491 -893 -488 0
-491 893 0
-491 488 0
492 -30 -761 0
-492 30 0
-492 761 0
493 -492 -31 0
-493 492 0
-493 31 0
494 -894 -491 0
-494 894 0
-494 491 0
495 -895 -702 0
-495 895 0
-495 702 0
496 -495 -45 0
-496 495 0
-496 45 0
497 -896 -494 0
-497 896 0
-497 494 0
498 -717 -793 0
-498 717 0
-498 793 0
499 -498 -32 0
-499 498 0
-499 32 0
500 -897 -497 0
-500 897 0
-500 497 0
501 -29 -18 0
-501 29 0
-501 18 0
502 -501 -755 0
-502 501 0
-502 755 0
503 -898 -500 0
-503 898 0
-503 500 0
504 -772 -14 0
-504 772 0
-504 14 0
505 -504 -708 0
-505 504 0
-505 708 0
506 -899 -503 0
-506 899 0
-506 503 0
507 -47 -802 0
-507 47 0
-507 802 0
508 -507 -712 0
-508 507 0
-508 712 0
509 -900 -506 0
-509 900 0
-509 506 0
510 -707 -702 0
-510 707 0
-510 702 0
511 -510 -724 0
-511 510 0
-511 724 0
512 -901 -509 0
-512 901 0
-512 509 0
513 -28 -10 0
-513 28 0
-513 10 0
514 -513 -41 0
-514 513 0
-514 41 0
515 -902 -512 0
-515 902 0
-515 512 0
516 -783 -47 0
-516 783 0
-516 47 0
517 -516 -33 0
-517 516 0
-517 33 0
518 -903 -515 0
-518 903 0
-518 515 0
519 -728 -697 0
-519 728 0
-519 697 0
520 -519 -33 0
-520 519 0
-520 33 0
521 -904 -518 0
-521 904 0
-521 518 0
522 -24 -11 0
-522 24 0
-522 11 0
523 -522 -717 0
-523 522 0
-523 717 0
524 -905 -521 0
-524 905 0
-524 521 0
525 -23 -7 0
-525 23 0
-525 7 0
526 -525 -712 0
-526 525 0
-526 712 0
527 -906 -524 0
-527 906 0
-527 524 0
528 -49 -26 0
-528 49 0
-528 26 0
529 -528 -19 0
-529 528 0
-529 19 0
530 -907 -527 0
-530 907 0
-530 527 0
531 -733 -785 0
-531 733 0
-531 785 0
532 -531 -710 0
-532 531 0
-532 710 0
533 -908 -530 0
-533 908 0
-533 530 0
534 -800 -2 0
-534 800 0
-534 2 0
535 -534 -41 0
-535 534 0
-535 41 0
536 -909 -533 0
-536 909 0
-536 533 0
537 -43 -37 0
-537 43 0
-537 37 0
538 -537 -761 0
-538 537 0
-538 761 0
539 -910 -536 0
-539 910 0
-539 536 0
540 -45 -700 0
-540 45 0
-540 700 0
541 -540 -745 0
-541 540 0
-541 745 0
542 -911 -539 0
-542 911 0
-542 539 0
543 -747 -792 0
-543 747 0
-543 792 0
544 -543 -751 0
-544 543 0
-544 751 0
545 -912 -542 0
-545 912 0
-545 542 0
546 -28 -697 0
-546 28 0
-546 697 0
547 -546 -847 0
-547 546 0
-547 847 0
548 -913 -545 0
-548 913 0
-548 545 0
549 -768 -20 0
-549 768 0
-549 20 0
550 -549 -33 0
-550 549 0
-550 33 0
551 -914 -548 0
-551 914 0
-551 548 0
552 -743 -2 0
-552 743 0
-552 2 0
553 -552 -42 0
-553 552 0
-553 42 0
554 -915 -551 0
-554 915 0
-554 551 0
555 -31 -16 0
-555 31 0
-555 16 0
556 -555 -708 0
-556 555 0
-556 708 0
557 -916 -554 0
-557 916 0
-557 554 0
558 -724 -763 0
-558 724 0
-558 763 0
559 -558 -17 0
-559 558 0
-559 17 0
560 -917 -557 0
-560 917 0
-560 557 0
561 -779 -39 0
-561 779 0
-561 39 0
562 -561 -44 0
-562 561 0
-562 44 0
563 -918 -560 0
-563 918 0
-563 560 0
564 -21 -6 0
-564 21 0
-564 6 0
565 -564 -33 0
-565 564 0
-565 33 0
566 -919 -563 0
-566 919 0
-566 563 0
567 -30 -10 0
-567 30 0
-567 10 0
568 -567 -35 0
-568 567 0
-568 35 0
569 -920 -566 0
-569 920 0
-569 566 0
570 -74 -729 0
-570 74 0
-570 729 0
571 -921 -569 0
-571 921 0
-571 569 0
572 -751 -790 0
-572 751 0
-572 790 0
573 -572 -745 0
-573 572 0
-573 745 0
574 -922 -571 0
-574 922 0
-574 571 0
575 -5 -793 0
-575 5 0
-575 793 0
576 -575 -729 0
-576 575 0
-576 729 0
577 -923 -574 0
-577 923 0
-577 574 0
578 -847 -790 0
-578 847 0
-578 790 0
579 -578 -802 0
-579 578 0
-579 802 0
580 -924 -577 0
-580 924 0
-580 577 0
581 -829 -700 0
-581 829 0
-581 700 0
582 -581 -42 0
-582 581 0
-582 42 0
583 -925 -580 0
-583 925 0
-583 580 0
584 -24 -1 0
-584 24 0
-584 1 0
585 -584 -32 0
-585 584 0
-585 32 0
586 -926 -583 0
-586 926 0
-586 583 0
587 -50 -800 0
-587 50 0
-587 800 0
588 -587 -751 0
-588 587 0
-588 751 0
589 -927 -586 0
-589 927 0
-589 586 0
590 -755 -717 0
-590 755 0
-590 717 0
591 -590 -714 0
-591 590 0
-591 714 0
592 -928 -589 0
-592 928 0
-592 589 0
593 -783 -707 0
-593 783 0
-593 707 0
594 -593 -710 0
-594 593 0
-594 710 0
595 -929 -592 0
-595 929 0
-595 592 0
596 -47 -747 0
-596 47 0
-596 747 0
597 -596 -712 0
-597 596 0
-597 712 0
598 -930 -595 0
-598 930 0
-598 595 0
599 -44 -732 0
-599 44 0
-599 732 0
600 -599 -711 0
-600 599 0
-600 711 0
601 -931 -598 0
-601 931 0
-601 598 0
602 -733 -707 0
-602 733 0
-602 707 0
603 -602 -729 0
-603 602 0
-603 729 0
604 -932 -601 0
-604 932 0
-604 601 0
605 -697 -3 0
-605 697 0
-605 3 0
606 -605 -31 0
-606 605 0
-606 31 0
607 -933 -604 0
-607 933 0
-607 604 0
608 -28 -23 0
-608 28 0
-608 23 0
609 -608 -12 0
-609 608 0
-609 12 0
610 -934 -607 0
-610 934 0
-610 607 0
611 -787 -790 0
-611 787 0
-611 790 0
612 -611 -710 0
-612 611 0
-612 710 0
613 -935 -610 0
-613 935 0
-613 610 0
614 -724 -18 0
-614 724 0
-614 18 0
615 -614 -33 0
-615 614 0
-615 33 0
616 -936 -613 0
-616 936 0
-616 613 0
617 -23 -703 0
-617 23 0
-617 703 0
618 -617 -708 0
-618 617 0
-618 708 0
619 -937 -616 0
-619 937 0
-619 616 0
620 -34 -700 0
-620 34 0
-620 700 0
621 -620 -9 0
-621 620 0
-621 9 0
622 -938 -619 0
-622 938 0
-622 619 0
623 -24 -13 0
-623 24 0
-623 13 0
624 -623 -45 0
-624 623 0
-624 45 0
625 -939 -622 0
-625 939 0
-625 622 0
626 -743 -793 0
-626 743 0
-626 793 0
627 -626 -3 0
-627 626 0
-627 3 0
628 -940 -625 0
-628 940 0
-628 625 0
629 -768 -706 0
-629 768 0
-629 706 0
630 -629 -735 0
-630 629 0
-630 735 0
631 -941 -628 0
-631 941 0
-631 628 0
632 -732 -702 0
-632 732 0
-632 702 0
633 -632 -19 0
-633 632 0
-633 19 0
634 -942 -631 0
-634 942 0
-634 631 0
635 -24 -3 0
-635 24 0
-635 3 0
636 -635 -35 0
-636 635 0
-636 35 0
637 -943 -634 0
-637 943 0
-637 634 0
638 -740 -707 0
-638 740 0
-638 707 0
639 -638 -22 0
-639 638 0
-639 22 0
640 -944 -637 0
-640 944 0
-640 637 0
641 -602 -14 0
-641 602 0
-641 14 0
642 -945 -640 0
-642 945 0
-642 640 0
643 -707 -759 0
-643 707 0
-643 759 0
644 -643 -729 0
-644 643 0
-644 729 0
645 -946 -642 0
-645 946 0
-645 642 0
646 -50 -724 0
-646 50 0
-646 724 0
647 -646 -17 0
-647 646 0
-647 17 0
648 -947 -645 0
-648 947 0
-648 645 0
649 -783 -28 0
-649 783 0
-649 28 0
650 -649 -38 0
-650 649 0
-650 38 0
651 -948 -648 0
-651 948 0
-651 648 0
652 -34 -792 0
-652 34 0
-652 792 0
653 -652 -751 0
-653 652 0
-653 751 0
654 -949 -651 0
-654 949 0
-654 651 0
655 -43 -710 0
-655 43 0
-655 710 0
656 -655 -15 0
-656 655 0
-656 15 0
657 -950 -654 0
-657 950 0
-657 654 0
658 -25 -22 0
-658 25 0
-658 22 0
659 -658 -12 0
-659 658 0
-659 12 0
660 -951 -657 0
-660 951 0
-660 657 0
661 -34 -703 0
-661 34 0
-661 703 0
662 -661 -724 0
-662 661 0
-662 724 0
663 -952 -660 0
-663 952 0
-663 660 0
664 -795 -18 0
-664 795 0
-664 18 0
665 -664 -745 0
-665 664 0
-665 745 0
666 -953 -663 0
-666 953 0
-666 663 0
667 -48 -725 0
-667 48 0
-667 725 0
668 -667 -729 0
-668 667 0
-668 729 0
669 -954 -666 0
-669 954 0
-669 666 0
670 -772 -735 0
-670 772 0
-670 735 0
671 -670 -829 0
-671 670 0
-671 829 0
672 -955 -669 0
-672 955 0
-672 669 0
673 -28 -700 0
-673 28 0
-673 700 0
674 -673 -768 0
-674 673 0
-674 768 0
675 -956 -672 0
-675 956 0
-675 672 0
676 -732 -28 0
-676 732 0
-676 28 0
677 -676 -35 0
-677 676 0
-677 35 0
678 -957 -675 0
-678 957 0
-678 675 0
679 -48 -740 0
-679 48 0
-679 740 0
680 -679 -26 0
-680 679 0
-680 26 0
681 -958 -678 0
-681 958 0
-681 678 0
682 -795 -732 0
-682 795 0
-682 732 0
683 -682 -14 0
-683 682 0
-683 14 0
684 -959 -681 0
-684 959 0
-684 681 0
685 -41 -12 0
-685 41 0
-685 12 0
686 -685 -19 0
-686 685 0
-686 19 0
687 -960 -684 0
-687 960 0
-687 684 0
688 -790 -759 0
-688 790 0
-688 759 0
689 -688 -735 0
-689 688 0
-689 735 0
690 -961 -687 0
-690 961 0
-690 687 0
691 -27 -703 0
-691 27 0
-691 703 0
692 -691 -790 0
-692 691 0
-692 790 0
693 -962 -690 0
-693 962 0
-693 690 0
694 -29 -24 0
-694 29 0
-694 24 0
695 -694 -8 0
-695 694 0
-695 8 0
696 -963 -693 0
-696 963 0
-696 693 0
-697 -5 0
697 5 0
-698 -54 0
698 54 0
-699 -52 0
699 52 0
-700 -7 0
700 7 0
-701 -57 0
701 57 0
-702 -11 0
702 11 0
-703 -10 0
703 10 0
-704 -12 0
704 12 0
-705 -60 0
705 60 0
-706 -14 0
706 14 0
-707 -13 0
707 13 0
-708 -15 0
708 15 0
-709 -63 0
709 63 0
-710 -17 0
710 17 0
-711 -16 0
711 16 0
-712 -18 0
712 18 0
-713 -66 0
713 66 0
-714 -9 0
714 9 0
-715 -69 0
715 69 0
-716 -72 0
716 72 0
-717 -22 0
717 22 0
-718 -75 0
718 75 0
-719 -78 0
719 78 0
-720 -81 0
720 81 0
-721 -26 0
721 26 0
-722 -84 0
722 84 0
-723 -87 0
723 87 0
-724 -29 0
724 29 0
-725 -30 0
725 30 0
-726 -90 0
726 90 0
-727 -93 0
727 93 0
-728 -32 0
728 32 0
-729 -33 0
729 33 0
-730 -96 0
730 96 0
-731 -99 0
731 99 0
-732 -34 0
732 34 0
-733 -28 0
733 28 0
-734 -102 0
734 102 0
-735 -20 0
735 20 0
-736 -105 0
736 105 0
-737 -108 0
737 108 0
-738 -111 0
738 111 0
-739 -114 0
739 114 0
-740 -25 0
740 25 0
-741 -117 0
741 117 0
-742 -120 0
742 120 0
-743 -37 0
743 37 0
-744 -23 0
744 23 0
-745 -38 0
745 38 0
-746 -123 0
746 123 0
-747 -39 0
747 39 0
-748 -126 0
748 126 0
-749 -129 0
749 129 0
-750 -132 0
750 132 0
-751 -41 0
751 41 0
-752 -135 0
752 135 0
-753 -138 0
753 138 0
-754 -141 0
754 141 0
-755 -42 0
755 42 0
-756 -144 0
756 144 0
-757 -147 0
757 147 0
-758 -150 0
758 150 0
-759 -3 0
759 3 0
-760 -153 0
760 153 0
-761 -4 0
761 4 0
-762 -156 0
762 156 0
-763 -24 0
763 24 0
-764 -159 0
764 159 0
-765 -162 0
765 162 0
-766 -165 0
766 165 0
-767 -168 0
767 168 0
-768 -47 0
768 47 0
-769 -171 0
769 171 0
-770 -174 0
770 174 0
-771 -177 0
771 177 0
-772 -43 0
772 43 0
-773 -180 0
773 180 0
-774 -183 0
774 183 0
-775 -186 0
775 186 0
-776 -189 0
776 189 0
-777 -192 0
777 192 0
-778 -195 0
778 195 0
-779 -46 0
779 46 0
-780 -198 0
780 198 0
-781 -201 0
781 201 0
-782 -204 0
782 204 0
-783 -50 0
783 50 0
-784 -207 0
784 207 0
-785 -21 0
785 21 0
-786 -210 0
786 210 0
-787 -27 0
787 27 0
-788 -213 0
788 213 0
-789 -216 0
789 216 0
-790 -6 0
790 6 0
-791 -219 0
791 219 0
-792 -1 0
792 1 0
-793 -2 0
793 2 0
-794 -222 0
794 222 0
-795 -44 0
795 44 0
-796 -225 0
796 225 0
-797 -228 0
797 228 0
-798 -231 0
798 231 0
-799 -234 0
799 234 0
-800 -49 0
800 49 0
-801 -237 0
801 237 0
-802 -45 0
802 45 0
-803 -240 0
803 240 0
-804 -243 0
804 243 0
-805 -36 0
805 36 0
-806 -246 0
806 246 0
-807 -249 0
807 249 0
-808 -252 0
808 252 0
-809 -255 0
809 255 0
-810 -258 0
810 258 0
-811 -261 0
811 261 0
-812 -263 0
812 263 0
-813 -266 0
813 266 0
-814 -269 0
814 269 0
-815 -272 0
815 272 0
-816 -275 0
816 275 0
-817 -278 0
817 278 0
-818 -281 0
818 281 0
-819 -284 0
819 284 0
-820 -287 0
820 287 0
-821 -290 0
821 290 0
-822 -293 0
822 293 0
-823 -296 0
823 296 0
-824 -299 0
824 299 0
-825 -302 0
825 302 0
-826 -305 0
826 305 0
-827 -308 0
827 308 0
-828 -311 0
828 311 0
-829 -19 0
829 19 0
-830 -314 0
830 314 0
-831 -317 0
831 317 0
-832 -320 0
832 320 0
-833 -323 0
833 323 0
-834 -326 0
834 326 0
-835 -329 0
835 329 0
-836 -332 0
836 332 0
-837 -335 0
837 335 0
-838 -337 0
838 337 0
-839 -340 0
839 340 0
-840 -343 0
840 343 0
-841 -346 0
841 346 0
-842 -349 0
842 349 0
-843 -352 0
843 352 0
-844 -31 0
844 31 0
-845 -355 0
845 355 0
-846 -358 0
846 358 0
-847 -48 0
847 48 0
-848 -361 0
848 361 0
-849 -364 0
849 364 0
-850 -367 0
850 367 0
-851 -370 0
851 370 0
-852 -373 0
852 373 0
-853 -376 0
853 376 0
-854 -379 0
854 379 0
-855 -382 0
855 382 0
-856 -385 0
856 385 0
-857 -388 0
857 388 0
-858 -391 0
858 391 0
-859 -394 0
859 394 0
-860 -397 0
860 397 0
-861 -400 0
861 400 0
-862 -403 0
862 403 0
-863 -406 0
863 406 0
-864 -409 0
864 409 0
-865 -412 0
865 412 0
-866 -415 0
866 415 0
-867 -40 0
867 40 0
-868 -418 0
868 418 0
-869 -421 0
869 421 0
-870 -424 0
870 424 0
-871 -427 0
871 427 0
-872 -430 0
872 430 0
-873 -433 0
873 433 0
-874 -436 0
874 436 0
-875 -439 0
875 439 0
-876 -442 0
876 442 0
-877 -445 0
877 445 0
-878 -447 0
878 447 0
-879 -450 0
879 450 0
-880 -452 0
880 452 0
-881 -455 0
881 455 0
-882 -458 0
882 458 0
-883 -461 0
883 461 0
-884 -464 0
884 464 0
-885 -467 0
885 467 0
-886 -470 0
886 470 0
-887 -473 0
887 473 0
-888 -476 0
888 476 0
-889 -479 0
889 479 0
-890 -482 0
890 482 0
-891 -484 0
891 484 0
-892 -487 0
892 487 0
-893 -490 0
893 490 0
-894 -493 0
894 493 0
-895 -35 0
895 35 0
-896 -496 0
896 496 0
-897 -499 0
897 499 0
-898 -502 0
898 502 0
-899 -505 0
899 505 0
-900 -508 0
900 508 0
-901 -511 0
901 511 0
-902 -514 0
902 514 0
-903 -517 0
903 517 0
-904 -520 0
904 520 0
-905 -523 0
905 523 0
-906 -526 0
906 526 0
-907 -529 0
907 529 0
-908 -532 0
908 532 0
-909 -535 0
909 535 0
-910 -538 0
910 538 0
-911 -541 0
911 541 0
-912 -544 0
912 544 0
-913 -547 0
913 547 0
-914 -550 0
914 550 0
-915 -553 0
915 553 0
-916 -556 0
916 556 0
-917 -559 0
917 559 0
-918 -562 0
918 562 0
-919 -565 0
919 565 0
-920 -568 0
920 568 0
-921 -570 0
921 570 0
-922 -573 0
922 573 0
-923 -576 0
923 576 0
-924 -579 0
924 579 0
-925 -582 0
925 582 0
-926 -585 0
926 585 0
-927 -588 0
927 588 0
-928 -591 0
928 591 0
-929 -594 0
929 594 0
-930 -597 0
930 597 0
-931 -600 0
931 600 0
-932 -603 0
932 603 0
-933 -606 0
933 606 0
-934 -609 0
934 609 0
-935 -612 0
935 612 0
-936 -615 0
936 615 0
-937 -618 0
937 618 0
-938 -621 0
938 621 0
-939 -624 0
939 624 0
-940 -627 0
940 627 0
-941 -630 0
941 630 0
-942 -633 0
942 633 0
-943 -636 0
943 636 0
-944 -639 0
944 639 0
-945 -641 0
945 641 0
-946 -644 0
946 644 0
-947 -647 0
947 647 0
-948 -650 0
948 650 0
-949 -653 0
949 653 0
-950 -656 0
950 656 0
-951 -659 0
951 659 0
-952 -662 0
952 662 0
-953 -665 0
953 665 0
-954 -668 0
954 668 0
-955 -671 0
955 671 0
-956 -674 0
956 674 0
-957 -677 0
957 677 0
-958 -680 0
958 680 0
-959 -683 0
959 683 0
-960 -686 0
960 686 0
-961 -689 0
961 689 0
-962 -692 0
962 692 0
-963 -695 0
963 695 0
696 0
